; benchmark generated from python API
(set-info :status unknown)
(declare-datatypes ((IntState 0)) (((Mk1 (val1 Int)) (Mk2 (val2 Int)))))
 (declare-fun c_main_~i~6 () Int)
(declare-fun c_main_~j~6 () Int)
(declare-fun c_main_~k~6 () Int)
(assert
 (let (($x33 (<= c_main_~j~6 (+ (* 2 c_main_~i~6) 1))))
 (let (($x30 (<= c_main_~j~6 (+ (* 2 c_main_~i~6) 2))))
 (let (($x39 (<= c_main_~i~6 3)))
 (let (($x18 (exists ((main_~i~6_st IntState) (val!11 Int) )(let ((?x56 (val2 main_~i~6_st)))
 (let (($x99 (<= ?x56 3)))
 (let (($x93 (and (<= c_main_~j~6 (+ (* 2 ?x56) 2)) $x99 (<= ?x56 c_main_~k~6))))
 (let (($x52 (not (= main_~i~6_st (Mk1 val!11)))))
 (and $x52 $x93))))))
 ))
 (let (($x76 (<= c_main_~i~6 2)))
 (let (($x67 (exists ((v_nnf_46 Int) )(let (($x83 (<= c_main_~j~6 (+ (* 2 v_nnf_46) 2))))
 (let (($x127 (<= v_nnf_46 3)))
 (and (<= (+ v_nnf_46 2) c_main_~k~6) $x127 $x83))))
 ))
 (and (and $x76 $x67 $x39 $x30 $x33) (not (and $x76 $x18 $x39 $x30 $x33))))))))))
(check-sat)
